results/filo2/x-long/X-n157-k13.vrp_seed-1.vrp.sol
Route #1: 129 91 100 51 90 83 45 77 11 82 113 151
Route #2: 71 149 8 150 156 24 43 141 64 63 13 148
Route #3: 34 138 25 155 22 30 74 79 84 33 48 72
Route #4: 38 122 69 99 93 36 68 20 75 118 147 15
Route #5: 126 1 117 9 108 40 80 146 78 125 139 70
Route #6: 143 32 42 3 106 73 135 21 121 54 110 41
Route #7: 59 96 102 111 132 86 94 66 28 7 137 92
Route #8: 131 133 50 154 98 123 53 144 85 140 31 23
Route #9: 101 27 44 124 130 104 127 145 46 19 116 37
Route #10: 18 107 52 134 10 39 58 29 114 109 60 12
Route #11: 47 5 153 76 136 112 89 81 119 2 57 88
Route #12: 49 14 120 26 128 142 62 97 87 65 103 16
Route #13: 61 56 152 105 95 55 115 6 35 4 67 17
Cost 16876.000000